NAME : a280
COMMENT : Tour length 3499
TYPE : TOUR
DIMENSION : 280
TOUR_SECTION
1
280
2
3
5
6
9
7
8
10
11
12
13
14
24
23
25
22
26
27
28
29
32
31
30
125
126
127
128
129
131
130
21
20
19
132
133
18
17
16
271
272
273
274
275
276
277
4
278
279
260
259
258
257
254
253
208
209
252
255
256
249
230
229
228
227
226
225
224
223
222
219
218
217
220
221
216
213
212
207
210
211
214
215
205
204
203
202
200
144
143
142
147
146
145
199
198
197
194
195
196
201
193
192
191
190
189
188
187
185
184
183
182
181
176
177
151
152
156
153
155
154
123
124
122
121
120
119
157
158
159
160
175
161
162
163
164
165
166
167
168
169
101
100
99
98
93
94
95
96
97
92
91
90
89
109
108
104
105
103
102
170
171
172
173
106
107
174
110
111
114
113
87
84
85
65
64
63
62
118
117
115
116
86
66
67
70
71
72
73
74
75
76
77
78
79
80
81
82
83
88
112
61
60
43
42
41
40
39
38
37
36
35
34
33
50
51
52
53
54
55
56
57
58
59
44
45
46
47
48
49
68
69
178
150
149
139
138
137
267
266
140
141
148
265
264
263
262
261
270
134
135
136
268
269
15
248
247
244
241
240
239
238
231
246
245
250
251
232
233
234
235
236
237
242
243
206
179
180
186
1
-1
EOF